ALGO = Normal
EDIFF = 5e-05
ENCUT = 520.0
IBRION = -1
ICHARG = 0
ISIF = 3
ISMEAR = -5
ISPIN = 2
KPOINT_BSE = -1 0 0 0
LAECHG = True
LCHARG = True
LORBIT = 11
LREAL = Auto
LVHAR = True
LWAVE = False
MAGMOM = 1*0.0
NELM = 100
NSW = 0
PREC = accurate
SIGMA = 0.05
