pymatgen 4.7.6+ generated KPOINTS with grid density = 8563 / atom
0
Monkhorst
20 20 20
