Si1
1.0
2.369566 0.000000 1.368069
0.789855 2.234048 1.368069
0.000000 0.000000 2.736139
Si
1
direct
0.000000 0.000000 0.000000 Si
