pymatgen with grid density = 8563 / number of atoms
0
Monkhorst
20 20 20
