Cr8
1.0
4.546539 0.000000 0.000000
0.000000 4.546539 0.000000
0.000000 0.000000 4.546539
Cr
8
direct
0.000000 0.000000 0.000000 Cr
0.500000 0.500000 0.500000 Cr
0.250000 0.000000 0.500000 Cr
0.750000 0.000000 0.500000 Cr
0.000000 0.500000 0.250000 Cr
0.000000 0.500000 0.750000 Cr
0.500000 0.750000 0.000000 Cr
0.500000 0.250000 0.000000 Cr
