ALGO = Fast
EDIFF = 2e-06
ENCUT = 520.0
IBRION = -1
ICHARG = 11
ISIF = 3
ISMEAR = -5
ISPIN = 1
ISYM = 0
KPOINT_BSE = -1 0 0 0
LAECHG = True
LCHARG = False
LORBIT = 11
LREAL = Auto
LVHAR = True
LVTOT = True
LWAVE = False
NBANDS = 10
NEDOS = 2001
NELM = 100
NSW = 0
PREC = accurate
SIGMA = 0.05
