pymatgen v1.1 with grid density = 1213 / atom
0
Monkhorst
8 8 8
