pymatgen v1.1 with grid density = 1097 / atom
0
Gamma
6 6 6
