pymatgen v1.1 with grid density = 1372 / atom
0
Gamma
11 11 11
