pymatgen v1.1 with grid density = 1214 / atom
0
Gamma
5 5 5
