Al1 Cr2
1.0
2.810866 0.000000 -0.922522
-0.302770 2.794512 -0.922522
0.019247 0.021445 4.802168
Al Cr
1 2
direct
0.000000 0.000000 0.000000 Al
0.315671 0.315671 0.631343 Cr
0.684329 0.684329 0.368657 Cr
