Cr1
1.0
2.219492 0.000000 1.281424
0.739831 2.092557 1.281424
0.000000 0.000000 2.562849
Cr
1
direct
0.000000 0.000000 0.000000 Cr
