Non SCF run along symmetry lines
1058
Reciprocal
0.0 0.0 0.0 1 \Gamma
0.0030674846625766876 -2.0973258703044964e-19 0.003067484662576688 1 
0.006134969325153375 -4.194651740608993e-19 0.006134969325153376 1 
0.009202453987730064 -6.291977610913488e-19 0.009202453987730064 1 
0.01226993865030675 -8.389303481217986e-19 0.012269938650306752 1 
0.015337423312883439 -1.0486629351522484e-18 0.015337423312883437 1 
0.018404907975460127 -1.2583955221826976e-18 0.018404907975460127 1 
0.02147239263803681 -1.4681281092131473e-18 0.02147239263803681 1 
0.0245398773006135 -1.6778606962435971e-18 0.024539877300613504 1 
0.02760736196319019 -1.8875932832740464e-18 0.027607361963190188 1 
0.030674846625766878 -2.0973258703044968e-18 0.030674846625766874 1 
0.033742331288343565 -2.3070584573349453e-18 0.033742331288343565 1 
0.036809815950920255 -2.5167910443653953e-18 0.036809815950920255 1 
0.03987730061349694 -2.7265236313958457e-18 0.03987730061349694 1 
0.04294478527607362 -2.9362562184262946e-18 0.04294478527607362 1 
0.04601226993865031 -3.1459888054567442e-18 0.04601226993865031 1 
0.049079754601227 -3.3557213924871942e-18 0.04907975460122701 1 
0.05214723926380369 -3.565453979517643e-18 0.05214723926380368 1 
0.05521472392638038 -3.775186566548093e-18 0.055214723926380375 1 
0.058282208588957066 -3.984919153578545e-18 0.05828220858895705 1 
0.061349693251533756 -4.1946517406089936e-18 0.06134969325153375 1 
0.06441717791411043 -4.404384327639441e-18 0.06441717791411043 1 
0.06748466257668713 -4.6141169146698905e-18 0.06748466257668713 1 
0.0705521472392638 -4.823849501700342e-18 0.0705521472392638 1 
0.07361963190184051 -5.0335820887307906e-18 0.07361963190184051 1 
0.07668711656441718 -5.243314675761242e-18 0.07668711656441718 1 
0.07975460122699388 -5.4530472627916914e-18 0.07975460122699388 1 
0.08282208588957056 -5.66277984982214e-18 0.08282208588957056 1 
0.08588957055214724 -5.872512436852589e-18 0.08588957055214724 1 
0.08895705521472393 -6.082245023883043e-18 0.08895705521472394 1 
0.09202453987730062 -6.2919776109134884e-18 0.09202453987730062 1 
0.09509202453987732 -6.501710197943939e-18 0.09509202453987732 1 
0.098159509202454 -6.7114427849743885e-18 0.09815950920245402 1 
0.10122699386503067 -6.92117537200484e-18 0.10122699386503069 1 
0.10429447852760738 -7.130907959035285e-18 0.10429447852760736 1 
0.10736196319018408 -7.340640546065738e-18 0.10736196319018407 1 
0.11042944785276076 -7.550373133096186e-18 0.11042944785276075 1 
0.11349693251533743 -7.760105720126635e-18 0.11349693251533742 1 
0.11656441717791413 -7.96983830715709e-18 0.1165644171779141 1 
0.11963190184049083 -8.179570894187538e-18 0.11963190184049081 1 
0.12269938650306751 -8.389303481217987e-18 0.1226993865030675 1 
0.1257668711656442 -8.599036068248432e-18 0.1257668711656442 1 
0.12883435582822086 -8.808768655278883e-18 0.12883435582822086 1 
0.13190184049079753 -9.01850124230933e-18 0.13190184049079753 1 
0.13496932515337426 -9.228233829339781e-18 0.13496932515337426 1 
0.13803680981595093 -9.437966416370238e-18 0.13803680981595093 1 
0.1411042944785276 -9.647699003400684e-18 0.1411042944785276 1 
0.14417177914110432 -9.85743159043113e-18 0.14417177914110432 1 
0.14723926380368102 -1.0067164177461581e-17 0.14723926380368102 1 
0.1503067484662577 -1.027689676449203e-17 0.1503067484662577 1 
0.15337423312883436 -1.0486629351522484e-17 0.15337423312883436 1 
0.15644171779141108 -1.0696361938552932e-17 0.15644171779141108 1 
0.15950920245398775 -1.0906094525583383e-17 0.15950920245398775 1 
0.16257668711656445 -1.1115827112613834e-17 0.16257668711656445 1 
0.16564417177914112 -1.132555969964428e-17 0.16564417177914112 1 
0.16871165644171782 -1.1535292286674724e-17 0.16871165644171782 1 
0.17177914110429449 -1.1745024873705178e-17 0.17177914110429449 1 
0.17484662576687116 -1.1954757460735629e-17 0.17484662576687116 1 
0.17791411042944785 -1.2164490047766086e-17 0.17791411042944788 1 
0.18098159509202458 -1.237422263479653e-17 0.18098159509202458 1 
0.18404907975460125 -1.2583955221826977e-17 0.18404907975460125 1 
0.18711656441717794 -1.2793687808857428e-17 0.18711656441717794 1 
0.19018404907975464 -1.3003420395887878e-17 0.19018404907975464 1 
0.1932515337423313 -1.3213152982918326e-17 0.1932515337423313 1 
0.196319018404908 -1.3422885569948777e-17 0.19631901840490804 1 
0.19938650306748468 -1.3632618156979226e-17 0.1993865030674847 1 
0.20245398773006135 -1.384235074400968e-17 0.20245398773006137 1 
0.2055214723926381 -1.4052083331040126e-17 0.20552147239263804 1 
0.20858895705521477 -1.426181591807057e-17 0.2085889570552147 1 
0.21165644171779147 -1.4471548505101022e-17 0.2116564417177914 1 
0.21472392638036816 -1.4681281092131476e-17 0.21472392638036814 1 
0.21779141104294483 -1.489101367916192e-17 0.2177914110429448 1 
0.22085889570552153 -1.510074626619237e-17 0.2208588957055215 1 
0.2239263803680982 -1.5310478853222822e-17 0.22392638036809817 1 
0.22699386503067487 -1.552021144025327e-17 0.22699386503067484 1 
0.2300613496932516 -1.5729944027283726e-17 0.23006134969325154 1 
0.23312883435582826 -1.593967661431418e-17 0.2331288343558282 1 
0.23619631901840496 -1.6149409201344625e-17 0.2361963190184049 1 
0.23926380368098166 -1.6359141788375076e-17 0.23926380368098163 1 
0.24233128834355833 -1.6568874375405524e-17 0.2423312883435583 1 
0.24539877300613502 -1.6778606962435974e-17 0.245398773006135 1 
0.2484662576687117 -1.6988339549466425e-17 0.24846625766871167 1 
0.2515337423312884 -1.7198072136496864e-17 0.2515337423312884 1 
0.25460122699386506 -1.7407804723527317e-17 0.25460122699386506 1 
0.25766871165644173 -1.7617537310557765e-17 0.25766871165644173 1 
0.2607361963190184 -1.782726989758822e-17 0.2607361963190184 1 
0.26380368098159507 -1.803700248461866e-17 0.26380368098159507 1 
0.26687116564417185 -1.8246735071649114e-17 0.26687116564417185 1 
0.2699386503067485 -1.8456467658679562e-17 0.2699386503067485 1 
0.2730061349693252 -1.8666200245710022e-17 0.2730061349693252 1 
0.27607361963190186 -1.8875932832740476e-17 0.27607361963190186 1 
0.2791411042944785 -1.9085665419770924e-17 0.2791411042944785 1 
0.2822085889570552 -1.9295398006801368e-17 0.2822085889570552 1 
0.285276073619632 -1.9505130593831813e-17 0.2852760736196319 1 
0.28834355828220865 -1.971486318086226e-17 0.28834355828220865 1 
0.2914110429447853 -1.9924595767892712e-17 0.2914110429447853 1 
0.29447852760736204 -2.0134328354923162e-17 0.29447852760736204 1 
0.2975460122699387 -2.0344060941953613e-17 0.2975460122699387 1 
0.3006134969325154 -2.055379352898406e-17 0.3006134969325154 1 
0.30368098159509205 -2.0763526116014515e-17 0.30368098159509205 1 
0.3067484662576687 -2.097325870304497e-17 0.3067484662576687 1 
0.30981595092024544 -2.118299129007541e-17 0.30981595092024544 1 
0.31288343558282217 -2.1392723877105864e-17 0.31288343558282217 1 
0.3159509202453988 -2.1602456464136318e-17 0.3159509202453988 1 
0.3190184049079755 -2.1812189051166766e-17 0.3190184049079755 1 
0.3220858895705521 -2.2021921638197216e-17 0.3220858895705521 1 
0.3251533742331289 -2.2231654225227667e-17 0.3251533742331289 1 
0.3282208588957055 -2.2441386812258118e-17 0.3282208588957055 1 
0.33128834355828224 -2.265111939928856e-17 0.33128834355828224 1 
0.33435582822085896 -2.2860851986319007e-17 0.33435582822085896 1 
0.33742331288343563 -2.307058457334945e-17 0.33742331288343563 1 
0.3404907975460123 -2.3280317160379903e-17 0.3404907975460123 1 
0.34355828220858897 -2.3490049747410357e-17 0.34355828220858897 1 
0.3466257668711657 -2.3699782334440804e-17 0.3466257668711657 1 
0.3496932515337423 -2.3909514921471258e-17 0.3496932515337423 1 
0.3527607361963191 -2.4119247508501718e-17 0.3527607361963191 1 
0.3558282208588957 -2.4328980095532172e-17 0.35582822085889576 1 
0.35889570552147243 -2.453871268256261e-17 0.35889570552147243 1 
0.36196319018404916 -2.474844526959306e-17 0.36196319018404916 1 
0.3650306748466258 -2.4958177856623515e-17 0.3650306748466258 1 
0.3680981595092025 -2.5167910443653954e-17 0.3680981595092025 1 
0.37116564417177916 -2.537764303068441e-17 0.3711656441717792 1 
0.3742331288343559 -2.5587375617714855e-17 0.3742331288343559 1 
0.3773006134969325 -2.579710820474531e-17 0.37730061349693256 1 
0.3803680981595093 -2.6006840791775757e-17 0.3803680981595093 1 
0.38343558282208595 -2.621657337880621e-17 0.38343558282208595 1 
0.3865030674846626 -2.6426305965836652e-17 0.3865030674846626 1 
0.38957055214723935 -2.6636038552867112e-17 0.38957055214723935 1 
0.392638036809816 -2.6845771139897554e-17 0.39263803680981607 1 
0.3957055214723927 -2.7055503726928008e-17 0.3957055214723927 1 
0.39877300613496935 -2.7265236313958452e-17 0.3987730061349694 1 
0.4018404907975461 -2.7474968900988897e-17 0.4018404907975461 1 
0.4049079754601227 -2.768470148801936e-17 0.40490797546012275 1 
0.4079754601226995 -2.789443407504979e-17 0.40797546012269936 1 
0.4110429447852762 -2.810416666208025e-17 0.4110429447852761 1 
0.41411042944785287 -2.831389924911069e-17 0.4141104294478528 1 
0.41717791411042954 -2.852363183614114e-17 0.4171779141104294 1 
0.4202453987730062 -2.873336442317159e-17 0.42024539877300615 1 
0.42331288343558293 -2.8943097010202043e-17 0.4233128834355828 1 
0.42638036809815955 -2.91528295972325e-17 0.4263803680981595 1 
0.4294478527607363 -2.936256218426295e-17 0.42944785276073627 1 
0.432515337423313 -2.95722947712934e-17 0.4325153374233129 1 
0.43558282208588966 -2.978202735832384e-17 0.4355828220858896 1 
0.4386503067484664 -2.9991759945354316e-17 0.4386503067484663 1 
0.44171779141104306 -3.020149253238474e-17 0.441717791411043 1 
0.44478527607361973 -3.041122511941521e-17 0.4447852760736196 1 
0.4478527607361964 -3.0620957706445644e-17 0.44785276073619634 1 
0.4509202453987731 -3.083069029347609e-17 0.45092024539877307 1 
0.45398773006134974 -3.104042288050654e-17 0.4539877300613497 1 
0.4570552147239265 -3.1250155467537e-17 0.45705521472392646 1 
0.4601226993865032 -3.145988805456745e-17 0.4601226993865031 1 
0.46319018404907986 -3.166962064159789e-17 0.4631901840490798 1 
0.4662576687116565 -3.187935322862836e-17 0.4662576687116564 1 
0.4693251533742333 -3.208908581565879e-17 0.4693251533742332 1 
0.4723926380368099 -3.229881840268925e-17 0.4723926380368098 1 
0.47546012269938664 -3.25085509897197e-17 0.47546012269938653 1 
0.4785276073619633 -3.271828357675015e-17 0.47852760736196326 1 
0.48159509202454 -3.292801616378059e-17 0.4815950920245399 1 
0.48466257668711665 -3.313774875081105e-17 0.4846625766871166 1 
0.4877300613496934 -3.334748133784149e-17 0.48773006134969327 1 
0.49079754601227005 -3.355721392487195e-17 0.49079754601227 1 
0.4938650306748467 -3.376694651190239e-17 0.4938650306748466 1 
0.4969325153374234 -3.397667909893285e-17 0.49693251533742333 1 
0.5000000000000001 -3.418641168596329e-17 0.5 1 X
0.5000000000000001 -3.418641168596329e-17 0.5 1 X
0.5000000000000001 0.003048780487804844 0.5030487804878049 1 
0.5000000000000001 0.006097560975609721 0.5060975609756098 1 
0.5000000000000001 0.009146341463414597 0.5091463414634146 1 
0.5000000000000001 0.012195121951219478 0.5121951219512195 1 
0.5000000000000001 0.015243902439024355 0.5152439024390244 1 
0.5000000000000001 0.018292682926829232 0.5182926829268293 1 
0.5000000000000001 0.021341463414634113 0.5213414634146342 1 
0.5000000000000001 0.02439024390243899 0.524390243902439 1 
0.5000000000000001 0.027439024390243864 0.5274390243902439 1 
0.5000000000000001 0.03048780487804874 0.5304878048780488 1 
0.5000000000000001 0.033536585365853626 0.5335365853658537 1 
0.5000000000000001 0.0365853658536585 0.5365853658536586 1 
0.5000000000000001 0.039634146341463374 0.5396341463414634 1 
0.5000000000000001 0.04268292682926826 0.5426829268292683 1 
0.5000000000000001 0.04573170731707313 0.5457317073170732 1 
0.5000000000000001 0.04878048780487801 0.5487804878048781 1 
0.5000000000000001 0.05182926829268288 0.5518292682926829 1 
0.5000000000000001 0.05487804878048776 0.5548780487804879 1 
0.5000000000000001 0.057926829268292644 0.5579268292682926 1 
0.5000000000000001 0.06097560975609752 0.5609756097560975 1 
0.5000000000000001 0.06402439024390238 0.5640243902439024 1 
0.5000000000000001 0.06707317073170727 0.5670731707317073 1 
0.5000000000000001 0.07012195121951215 0.5701219512195121 1 
0.5000000000000001 0.07317073170731701 0.573170731707317 1 
0.5000000000000001 0.0762195121951219 0.5762195121951219 1 
0.5000000000000001 0.07926829268292677 0.5792682926829268 1 
0.5000000000000001 0.08231707317073166 0.5823170731707317 1 
0.5000000000000001 0.08536585365853654 0.5853658536585366 1 
0.5000000000000001 0.0884146341463414 0.5884146341463414 1 
0.5000000000000001 0.09146341463414627 0.5914634146341463 1 
0.5000000000000001 0.09451219512195116 0.5945121951219512 1 
0.5000000000000001 0.09756097560975605 0.5975609756097561 1 
0.5000000000000001 0.10060975609756093 0.600609756097561 1 
0.5000000000000001 0.10365853658536578 0.6036585365853658 1 
0.5000000000000001 0.10670731707317069 0.6067073170731707 1 
0.5000000000000001 0.10975609756097557 0.6097560975609756 1 
0.5000000000000001 0.11280487804878044 0.6128048780487805 1 
0.5000000000000001 0.11585365853658532 0.6158536585365854 1 
0.5000000000000001 0.1189024390243902 0.6189024390243902 1 
0.5000000000000001 0.12195121951219506 0.6219512195121951 1 
0.5000000000000001 0.12499999999999994 0.625 1 
0.5000000000000001 0.12804878048780483 0.6280487804878049 1 
0.5000000000000001 0.1310975609756097 0.6310975609756098 1 
0.5000000000000001 0.1341463414634146 0.6341463414634146 1 
0.5000000000000001 0.13719512195121947 0.6371951219512195 1 
0.5000000000000001 0.14024390243902435 0.6402439024390244 1 
0.5000000000000001 0.1432926829268292 0.6432926829268293 1 
0.5000000000000001 0.14634146341463408 0.646341463414634 1 
0.5000000000000001 0.14939024390243896 0.649390243902439 1 
0.5000000000000001 0.15243902439024384 0.6524390243902438 1 
0.5000000000000001 0.15548780487804872 0.6554878048780488 1 
0.5000000000000002 0.15853658536585358 0.6585365853658536 1 
0.5000000000000002 0.16158536585365849 0.6615853658536586 1 
0.5000000000000002 0.16463414634146337 0.6646341463414633 1 
0.5000000000000002 0.16768292682926822 0.6676829268292682 1 
0.5000000000000002 0.17073170731707313 0.6707317073170731 1 
0.5000000000000002 0.17378048780487798 0.673780487804878 1 
0.5000000000000002 0.17682926829268283 0.6768292682926829 1 
0.5000000000000002 0.17987804878048774 0.6798780487804877 1 
0.5000000000000002 0.1829268292682926 0.6829268292682926 1 
0.5000000000000002 0.18597560975609748 0.6859756097560975 1 
0.5000000000000002 0.18902439024390238 0.6890243902439024 1 
0.5000000000000002 0.19207317073170724 0.6920731707317073 1 
0.5000000000000002 0.19512195121951215 0.6951219512195121 1 
0.5000000000000002 0.198170731707317 0.698170731707317 1 
0.5000000000000002 0.20121951219512188 0.7012195121951219 1 
0.5000000000000002 0.20426829268292673 0.7042682926829268 1 
0.5000000000000002 0.20731707317073161 0.7073170731707317 1 
0.5000000000000002 0.2103658536585365 0.7103658536585366 1 
0.5000000000000002 0.2134146341463414 0.7134146341463414 1 
0.5000000000000002 0.21646341463414626 0.7164634146341463 1 
0.5000000000000002 0.21951219512195114 0.7195121951219512 1 
0.5000000000000002 0.222560975609756 0.722560975609756 1 
0.5000000000000002 0.2256097560975609 0.725609756097561 1 
0.5000000000000002 0.22865853658536578 0.7286585365853658 1 
0.5000000000000002 0.23170731707317066 0.7317073170731707 1 
0.5000000000000002 0.2347560975609755 0.7347560975609755 1 
0.5000000000000002 0.2378048780487804 0.7378048780487805 1 
0.5000000000000002 0.24085365853658527 0.7408536585365852 1 
0.5000000000000002 0.24390243902439016 0.7439024390243902 1 
0.5000000000000002 0.246951219512195 0.746951219512195 1 
0.5000000000000002 0.24999999999999992 0.75 1 W
0.5000000000000002 0.24999999999999992 0.75 1 W
0.497844827586207 0.25215517241379304 0.7499999999999999 1 
0.495689655172414 0.25431034482758613 0.75 1 
0.49353448275862083 0.2564655172413792 0.7499999999999999 1 
0.49137931034482774 0.2586206896551724 0.7499999999999999 1 
0.48922413793103464 0.26077586206896547 0.75 1 
0.48706896551724155 0.26293103448275856 0.7499999999999999 1 
0.4849137931034484 0.26508620689655166 0.7499999999999999 1 
0.48275862068965536 0.26724137931034475 0.75 1 
0.4806034482758622 0.26939655172413784 0.7499999999999999 1 
0.4784482758620691 0.271551724137931 0.7499999999999999 1 
0.4762931034482761 0.2737068965517241 0.75 1 
0.47413793103448293 0.2758620689655172 0.75 1 
0.4719827586206898 0.2780172413793103 0.7499999999999999 1 
0.46982758620689674 0.28017241379310337 0.75 1 
0.46767241379310365 0.2823275862068965 0.75 1 
0.4655172413793105 0.2844827586206896 0.75 1 
0.46336206896551746 0.2866379310344827 0.75 1 
0.4612068965517243 0.2887931034482758 0.75 1 
0.4590517241379312 0.2909482758620689 0.7499999999999999 1 
0.4568965517241381 0.29310344827586204 0.75 1 
0.45474137931034503 0.29525862068965514 0.75 1 
0.4525862068965519 0.2974137931034482 0.7499999999999999 1 
0.45043103448275884 0.2995689655172413 0.75 1 
0.4482758620689657 0.3017241379310344 0.75 1 
0.4461206896551726 0.3038793103448275 0.7499999999999999 1 
0.4439655172413795 0.30603448275862066 0.75 1 
0.4418103448275864 0.30818965517241376 0.75 1 
0.43965517241379326 0.3103448275862068 0.7499999999999999 1 
0.4375000000000002 0.31249999999999994 0.75 1 
0.43534482758620713 0.3146551724137931 0.75 1 
0.43318965517241403 0.31681034482758613 0.7499999999999999 1 
0.43103448275862094 0.3189655172413792 0.75 1 
0.42887931034482785 0.3211206896551724 0.75 1 
0.4267241379310347 0.3232758620689654 0.7499999999999999 1 
0.42456896551724166 0.32543103448275856 0.75 1 
0.4224137931034485 0.32758620689655166 0.75 1 
0.4202586206896554 0.32974137931034475 0.7499999999999999 1 
0.4181034482758624 0.33189655172413784 0.75 1 
0.41594827586206923 0.334051724137931 0.75 1 
0.4137931034482761 0.3362068965517241 0.75 1 
0.41163793103448304 0.3383620689655172 0.75 1 
0.40948275862068995 0.3405172413793103 0.75 1 
0.4073275862068968 0.3426724137931034 0.75 1 
0.40517241379310376 0.3448275862068964 0.75 1 
0.4030172413793106 0.34698275862068956 0.75 1 
0.4008620689655175 0.34913793103448265 0.75 1 
0.3987068965517244 0.35129310344827575 0.75 1 
0.3965517241379313 0.35344827586206884 0.75 1 
0.3943965517241382 0.355603448275862 0.75 1 
0.39224137931034514 0.3577586206896551 0.75 1 
0.390086206896552 0.3599137931034482 0.75 1 
0.3879310344827589 0.36206896551724127 0.75 1 
0.38577586206896575 0.3642241379310344 0.75 1 
0.3836206896551727 0.36637931034482746 0.75 1 
0.38146551724137956 0.3685344827586206 0.75 1 
0.37931034482758647 0.3706896551724137 0.75 1 
0.37715517241379337 0.3728448275862068 0.75 1 
0.3750000000000003 0.3749999999999999 0.75 1 K
0.3750000000000003 0.3749999999999999 0.75 1 K
0.3728323699421968 0.37283236994219643 0.745664739884393 1 
0.3706647398843933 0.37066473988439297 0.741329479768786 1 
0.36849710982658984 0.36849710982658945 0.7369942196531791 1 
0.3663294797687864 0.366329479768786 0.7326589595375721 1 
0.3641618497109829 0.3641618497109826 0.7283236994219653 1 
0.3619942196531794 0.36199421965317913 0.7239884393063583 1 
0.359826589595376 0.35982658959537567 0.7196531791907514 1 
0.35765895953757254 0.35765895953757215 0.7153179190751444 1 
0.3554913294797691 0.3554913294797687 0.7109826589595376 1 
0.3533236994219656 0.35332369942196523 0.7066473988439306 1 
0.3511560693641621 0.35115606936416177 0.7023121387283237 1 
0.34898843930635864 0.34898843930635826 0.6979768786127167 1 
0.3468208092485552 0.3468208092485548 0.6936416184971097 1 
0.3446531791907517 0.34465317919075134 0.6893063583815029 1 
0.3424855491329482 0.3424855491329479 0.6849710982658959 1 
0.34031791907514475 0.34031791907514447 0.680635838150289 1 
0.3381502890173413 0.33815028901734095 0.676300578034682 1 
0.3359826589595378 0.3359826589595375 0.6719653179190751 1 
0.3338150289017344 0.33381502890173403 0.6676300578034682 1 
0.3316473988439309 0.3316473988439306 0.6632947976878613 1 
0.32947976878612745 0.32947976878612706 0.6589595375722543 1 
0.327312138728324 0.3273121387283236 0.6546242774566473 1 
0.3251445086705205 0.32514450867052014 0.6502890173410405 1 
0.322976878612717 0.3229768786127167 0.6459537572254335 1 
0.32080924855491355 0.32080924855491316 0.6416184971098264 1 
0.3186416184971101 0.31864161849710976 0.6372832369942196 1 
0.31647398843930663 0.3164739884393063 0.6329479768786127 1 
0.3143063583815031 0.31430635838150284 0.6286127167630058 1 
0.3121387283236996 0.3121387283236994 0.6242774566473988 1 
0.30997109826589614 0.30997109826589586 0.6199421965317918 1 
0.3078034682080927 0.3078034682080924 0.6156069364161849 1 
0.3056358381502892 0.30563583815028894 0.611271676300578 1 
0.30346820809248576 0.3034682080924855 0.6069364161849711 1 
0.30130057803468224 0.30130057803468197 0.602601156069364 1 
0.29913294797687884 0.29913294797687856 0.5982658959537572 1 
0.2969653179190754 0.29696531791907504 0.5939306358381502 1 
0.29479768786127186 0.2947976878612716 0.5895953757225433 1 
0.2926300578034684 0.2926300578034682 0.5852601156069364 1 
0.29046242774566494 0.29046242774566466 0.5809248554913294 1 
0.2882947976878615 0.2882947976878612 0.5765895953757225 1 
0.28612716763005797 0.28612716763005774 0.5722543352601155 1 
0.28395953757225456 0.2839595375722543 0.5679190751445087 1 
0.28179190751445105 0.28179190751445077 0.5635838150289016 1 
0.27962427745664764 0.27962427745664736 0.5592485549132948 1 
0.2774566473988442 0.27745664739884385 0.5549132947976878 1 
0.27528901734104066 0.27528901734104044 0.550578034682081 1 
0.2731213872832372 0.273121387283237 0.546242774566474 1 
0.27095375722543374 0.27095375722543347 0.541907514450867 1 
0.2687861271676303 0.26878612716763 0.5375722543352601 1 
0.26661849710982677 0.26661849710982655 0.5332369942196531 1 
0.2644508670520233 0.2644508670520231 0.5289017341040463 1 
0.26228323699421985 0.26228323699421957 0.5245664739884393 1 
0.2601156069364164 0.2601156069364161 0.5202312138728322 1 
0.2579479768786129 0.25794797687861265 0.5158959537572254 1 
0.25578034682080947 0.2557803468208092 0.5115606936416184 1 
0.25361271676300595 0.25361271676300573 0.5072254335260116 1 
0.2514450867052025 0.25144508670520227 0.5028901734104045 1 
0.24927745664739906 0.24927745664739884 0.49855491329479773 1 
0.2471098265895956 0.24710982658959538 0.49421965317919075 1 
0.2449421965317921 0.2449421965317919 0.4898843930635838 1 
0.24277456647398865 0.24277456647398843 0.48554913294797686 1 
0.24060693641618516 0.24060693641618494 0.48121387283236994 1 
0.2384393063583817 0.23843930635838148 0.47687861271676296 1 
0.23627167630057822 0.23627167630057802 0.47254335260115604 1 
0.23410404624277478 0.23410404624277456 0.4682080924855491 1 
0.2319364161849713 0.23193641618497107 0.46387283236994215 1 
0.22976878612716783 0.22976878612716764 0.4595375722543352 1 
0.2276011560693643 0.2276011560693641 0.45520231213872825 1 
0.22543352601156086 0.22543352601156066 0.4508670520231214 1 
0.22326589595375737 0.2232658959537572 0.44653179190751446 1 
0.22109826589595394 0.22109826589595372 0.4421965317919075 1 
0.21893063583815042 0.21893063583815026 0.4378612716763005 1 
0.21676300578034696 0.21676300578034677 0.4335260115606936 1 
0.2145953757225435 0.2145953757225433 0.42919075144508667 1 
0.21242774566474001 0.21242774566473985 0.42485549132947975 1 
0.21026011560693655 0.2102601156069364 0.42052023121387283 1 
0.20809248554913307 0.2080924855491329 0.4161849710982658 1 
0.20592485549132963 0.20592485549132944 0.41184971098265893 1 
0.20375722543352615 0.203757225433526 0.40751445086705207 1 
0.20158959537572269 0.2015895953757225 0.40317919075144504 1 
0.1994219653179192 0.19942196531791903 0.3988439306358381 1 
0.19725433526011574 0.19725433526011554 0.3945086705202312 1 
0.1950867052023123 0.1950867052023121 0.3901734104046243 1 
0.19291907514450882 0.19291907514450862 0.38583815028901736 1 
0.19075144508670536 0.19075144508670516 0.38150289017341044 1 
0.18858381502890187 0.18858381502890167 0.3771676300578034 1 
0.1864161849710984 0.18641618497109821 0.3728323699421965 1 
0.18424855491329495 0.18424855491329478 0.3684971098265896 1 
0.18208092485549146 0.18208092485549127 0.36416184971098264 1 
0.179913294797688 0.17991329479768783 0.3598265895953757 1 
0.17774566473988454 0.17774566473988435 0.3554913294797688 1 
0.17557803468208105 0.1755780346820809 0.3511560693641619 1 
0.1734104046242776 0.1734104046242774 0.34682080924855485 1 
0.17124277456647416 0.17124277456647397 0.34248554913294804 1 
0.16907514450867064 0.16907514450867048 0.338150289017341 1 
0.1669075144508672 0.16690751445086702 0.3338150289017341 1 
0.16473988439306372 0.16473988439306353 0.32947976878612717 1 
0.1625722543352602 0.16257225433526007 0.32514450867052014 1 
0.16040462427745678 0.16040462427745664 0.32080924855491333 1 
0.15823699421965332 0.15823699421965312 0.3164739884393063 1 
0.15606936416184983 0.1560693641618497 0.31213872832369943 1 
0.15390173410404634 0.1539017341040462 0.30780346820809246 1 
0.15173410404624288 0.15173410404624274 0.30346820809248554 1 
0.1495664739884394 0.14956647398843925 0.29913294797687856 1 
0.14739884393063593 0.14739884393063582 0.2947976878612717 1 
0.14523121387283247 0.14523121387283233 0.2904624277456647 1 
0.14306358381502904 0.14306358381502887 0.2861271676300578 1 
0.14089595375722552 0.14089595375722538 0.2817919075144508 1 
0.1387283236994221 0.13872832369942195 0.2774566473988439 1 
0.1365606936416186 0.13656069364161844 0.273121387283237 1 
0.13439306358381514 0.134393063583815 0.26878612716763006 1 
0.13222543352601165 0.13222543352601154 0.26445086705202314 1 
0.13005780346820822 0.13005780346820808 0.2601156069364162 1 
0.1278901734104047 0.1278901734104046 0.2557803468208092 1 
0.12572254335260127 0.12572254335260113 0.2514450867052023 1 
0.1235549132947978 0.12355491329479769 0.24710982658959538 1 
0.12138728323699428 0.12138728323699417 0.24277456647398837 1 
0.11921965317919085 0.11921965317919074 0.23843930635838148 1 
0.11705202312138738 0.11705202312138727 0.23410404624277453 1 
0.11488439306358393 0.11488439306358382 0.22976878612716767 1 
0.11271676300578042 0.1127167630057803 0.22543352601156064 1 
0.11054913294797697 0.11054913294797686 0.22109826589595374 1 
0.10838150289017348 0.10838150289017338 0.2167630057803468 1 
0.10621387283237001 0.10621387283236995 0.21242774566473988 1 
0.10404624277456653 0.10404624277456644 0.2080924855491329 1 
0.1018786127167631 0.101878612716763 0.20375722543352603 1 
0.09971098265895958 0.09971098265895952 0.19942196531791906 1 
0.09754335260115615 0.09754335260115607 0.19508670520231217 1 
0.09537572254335268 0.09537572254335257 0.1907514450867052 1 
0.09320809248554923 0.09320809248554912 0.1864161849710983 1 
0.09104046242774573 0.09104046242774565 0.18208092485549132 1 
0.08887283236994228 0.08887283236994217 0.1777456647398844 1 
0.08670520231213878 0.0867052023121387 0.17341040462427743 1 
0.08453757225433534 0.08453757225433527 0.16907514450867056 1 
0.08236994219653186 0.08236994219653179 0.16473988439306358 1 
0.08020231213872836 0.08020231213872828 0.16040462427745658 1 
0.0780346820809249 0.07803468208092484 0.1560693641618497 1 
0.07586705202312143 0.07586705202312137 0.15173410404624277 1 
0.073699421965318 0.0736994219653179 0.14739884393063585 1 
0.07153179190751448 0.07153179190751442 0.14306358381502887 1 
0.06936416184971105 0.06936416184971098 0.13872832369942195 1 
0.06719653179190757 0.0671965317919075 0.13439306358381503 1 
0.06502890173410412 0.06502890173410403 0.1300578034682081 1 
0.06286127167630058 0.06286127167630055 0.12572254335260108 1 
0.06069364161849718 0.060693641618497086 0.12138728323699421 1 
0.0585260115606937 0.05852601156069361 0.11705202312138727 1 
0.05635838150289022 0.0563583815028902 0.11271676300578037 1 
0.05419075144508674 0.05419075144508666 0.10838150289017337 1 
0.052023121387283267 0.05202312138728325 0.10404624277456648 1 
0.04985549132947979 0.04985549132947977 0.09971098265895953 1 
0.04768786127167632 0.0476878612716763 0.09537572254335258 1 
0.045520231213872844 0.045520231213872824 0.09104046242774563 1 
0.04335260115606944 0.04335260115606935 0.08670520231213877 1 
0.041184971098265896 0.041184971098265875 0.08236994219653174 1 
0.039017341040462415 0.0390173410404624 0.07803468208092479 1 
0.03684971098265901 0.03684971098265893 0.07369942196531792 1 
0.03468208092485547 0.03468208092485545 0.06936416184971089 1 
0.03251445086705206 0.03251445086705205 0.06502890173410408 1 
0.03034682080924859 0.03034682080924851 0.06069364161849707 1 
0.02817919075144511 0.0281791907514451 0.05635838150289019 1 
0.026011560693641633 0.026011560693641626 0.05202312138728324 1 
0.02384393063583816 0.02384393063583815 0.04768786127167629 1 
0.021676300578034685 0.021676300578034675 0.04335260115606934 1 
0.019508670520231208 0.0195086705202312 0.039017341040462394 1 
0.017341040462427734 0.017341040462427727 0.034682080924855446 1 
0.015173410404624329 0.015173410404624324 0.030346820809248637 1 
0.013005780346820782 0.013005780346820778 0.026011560693641553 1 
0.010838150289017377 0.010838150289017372 0.02167630057803474 1 
0.008670520231213901 0.008670520231213898 0.017341040462427793 1 
0.006502890173410426 0.006502890173410424 0.013005780346820844 1 
0.004335260115606951 0.004335260115606949 0.008670520231213896 1 
0.0021676300578034754 0.0021676300578034745 0.004335260115606948 1 
0.0 0.0 0.0 1 \Gamma
0.0 0.0 0.0 1 \Gamma
0.0035460992907801435 0.0035460992907801418 0.0035460992907801413 1 
0.007092198581560287 0.0070921985815602835 0.007092198581560283 1 
0.01063829787234043 0.010638297872340424 0.010638297872340424 1 
0.014184397163120574 0.014184397163120567 0.014184397163120565 1 
0.017730496453900717 0.017730496453900707 0.01773049645390071 1 
0.02127659574468086 0.021276595744680847 0.021276595744680847 1 
0.024822695035461 0.024822695035460994 0.02482269503546099 1 