pymatgen v1.1 with grid density = 964 / atom
0
Gamma
9 9 9
