pymatgen v1.1 with grid density = 1328 / atom
0
Gamma
10 10 5
