Al16 Cr10
1.0
7.430657 -0.067234 -2.618797
-3.680038 6.455734 -2.618797
-0.039473 -0.067234 7.878528
Al Cr
16 10
direct
0.696455 0.696455 0.696455 Al
0.646563 0.002044 0.646563 Al
0.646563 0.646563 0.002044 Al
0.002044 0.646563 0.646563 Al
0.336523 0.558569 0.336523 Al
0.336523 0.336523 0.558569 Al
0.558569 0.336523 0.336523 Al
0.734771 0.383622 0.734771 Al
0.734771 0.734771 0.383622 Al
0.383622 0.734771 0.734771 Al
0.280797 0.666745 0.038053 Al
0.038053 0.280797 0.666745 Al
0.666745 0.038053 0.280797 Al
0.666745 0.280797 0.038053 Al
0.038053 0.666745 0.280797 Al
0.280797 0.038053 0.666745 Al
0.151124 0.151124 0.151124 Cr
0.015343 0.797266 0.015343 Cr
0.015343 0.015343 0.797266 Cr
0.797266 0.015343 0.015343 Cr
0.987828 0.333690 0.987828 Cr
0.987828 0.987828 0.333690 Cr
0.333690 0.987828 0.987828 Cr
0.365023 0.015932 0.365023 Cr
0.365023 0.365023 0.015932 Cr
0.015932 0.365023 0.365023 Cr
