pymatgen v1.1 with grid density = 1351 / atom
0
Gamma
5 5 5
