Al4
1.0
3.942357 0.000000 0.000000
0.000000 3.942357 -0.000000
-1.971178 -1.971178 6.189698
Al
4
direct
0.250000 0.750000 0.500000 Al
0.750000 0.250000 0.500000 Al
0.602999 0.602999 0.205999 Al
0.397001 0.397001 0.794001 Al
