Cr1
1.0
2.326707 0.000000 -0.822615
-1.163354 2.014988 -0.822615
0.000000 0.000000 2.467846
Cr
1
direct
0.000000 0.000000 0.000000 Cr
