Non SCF run along symmetry lines
1058
Reciprocal
0.0 0.0 0.0 1 \Gamma
0.0030674846625766876 2.0973258703045e-19 0.003067484662576688 1 
0.006134969325153375 4.194651740609e-19 0.006134969325153376 1 
0.009202453987730064 6.291977610913501e-19 0.009202453987730064 1 
0.01226993865030675 8.389303481218e-19 0.012269938650306752 1 
0.015337423312883439 1.0486629351522501e-18 0.015337423312883439 1 
0.018404907975460127 1.2583955221827002e-18 0.018404907975460127 1 
0.02147239263803681 1.4681281092131498e-18 0.021472392638036814 1 
0.0245398773006135 1.6778606962436e-18 0.024539877300613504 1 
0.02760736196319019 1.88759328327405e-18 0.02760736196319019 1 
0.030674846625766878 2.0973258703045003e-18 0.030674846625766878 1 
0.033742331288343565 2.30705845733495e-18 0.033742331288343565 1 
0.036809815950920255 2.5167910443654003e-18 0.036809815950920255 1 
0.03987730061349694 2.7265236313958496e-18 0.03987730061349694 1 
0.04294478527607362 2.9362562184262996e-18 0.04294478527607363 1 
0.04601226993865031 3.1459888054567496e-18 0.04601226993865031 1 
0.049079754601227 3.3557213924872e-18 0.04907975460122701 1 
0.05214723926380369 3.56545397951765e-18 0.05214723926380369 1 
0.05521472392638038 3.7751865665481e-18 0.05521472392638038 1 
0.058282208588957066 3.98491915357855e-18 0.058282208588957066 1 
0.061349693251533756 4.1946517406090005e-18 0.061349693251533756 1 
0.06441717791411043 4.4043843276394505e-18 0.06441717791411045 1 
0.06748466257668713 4.6141169146699e-18 0.06748466257668713 1 
0.0705521472392638 4.82384950170035e-18 0.07055214723926381 1 
0.07361963190184051 5.0335820887308006e-18 0.07361963190184051 1 
0.07668711656441718 5.24331467576125e-18 0.0766871165644172 1 
0.07975460122699388 5.453047262791699e-18 0.07975460122699388 1 
0.08282208588957056 5.66277984982215e-18 0.08282208588957057 1 
0.08588957055214724 5.872512436852599e-18 0.08588957055214726 1 
0.08895705521472393 6.08224502388305e-18 0.08895705521472394 1 
0.09202453987730062 6.291977610913499e-18 0.09202453987730062 1 
0.09509202453987732 6.50171019794395e-18 0.09509202453987733 1 
0.098159509202454 6.7114427849744e-18 0.09815950920245402 1 
0.10122699386503067 6.921175372004849e-18 0.10122699386503069 1 
0.10429447852760738 7.1309079590353e-18 0.10429447852760738 1 
0.10736196319018408 7.34064054606575e-18 0.10736196319018408 1 
0.11042944785276076 7.5503731330962e-18 0.11042944785276076 1 
0.11349693251533743 7.760105720126649e-18 0.11349693251533743 1 
0.11656441717791413 7.9698383071571e-18 0.11656441717791413 1 
0.11963190184049083 8.17957089418755e-18 0.11963190184049083 1 
0.12269938650306751 8.389303481218001e-18 0.12269938650306751 1 
0.1257668711656442 8.599036068248449e-18 0.1257668711656442 1 
0.12883435582822086 8.808768655278901e-18 0.1288343558282209 1 
0.13190184049079753 9.018501242309349e-18 0.13190184049079756 1 
0.13496932515337426 9.2282338293398e-18 0.13496932515337426 1 
0.13803680981595093 9.437966416370249e-18 0.13803680981595096 1 
0.1411042944785276 9.6476990034007e-18 0.14110429447852763 1 
0.14417177914110432 9.85743159043115e-18 0.14417177914110432 1 
0.14723926380368102 1.0067164177461601e-17 0.14723926380368102 1 
0.1503067484662577 1.0276896764492049e-17 0.1503067484662577 1 
0.15337423312883436 1.04866293515225e-17 0.1533742331288344 1 
0.15644171779141108 1.069636193855295e-17 0.15644171779141108 1 
0.15950920245398775 1.0906094525583398e-17 0.15950920245398775 1 
0.16257668711656445 1.111582711261385e-17 0.16257668711656448 1 
0.16564417177914112 1.13255596996443e-17 0.16564417177914115 1 
0.16871165644171782 1.153529228667475e-17 0.16871165644171784 1 
0.17177914110429449 1.1745024873705198e-17 0.1717791411042945 1 
0.17484662576687116 1.1954757460735648e-17 0.17484662576687118 1 
0.17791411042944785 1.21644900477661e-17 0.17791411042944788 1 
0.18098159509202458 1.237422263479655e-17 0.18098159509202458 1 
0.18404907975460125 1.2583955221826998e-17 0.18404907975460125 1 
0.18711656441717794 1.279368780885745e-17 0.18711656441717797 1 
0.19018404907975464 1.30034203958879e-17 0.19018404907975467 1 
0.1932515337423313 1.321315298291835e-17 0.19325153374233134 1 
0.196319018404908 1.34228855699488e-17 0.19631901840490804 1 
0.19938650306748468 1.363261815697925e-17 0.1993865030674847 1 
0.20245398773006135 1.3842350744009699e-17 0.20245398773006137 1 
0.2055214723926381 1.4052083331040148e-17 0.2055214723926381 1 
0.20858895705521477 1.42618159180706e-17 0.20858895705521477 1 
0.21165644171779147 1.447154850510105e-17 0.21165644171779147 1 
0.21472392638036816 1.46812810921315e-17 0.21472392638036816 1 
0.21779141104294483 1.4891013679161948e-17 0.21779141104294483 1 
0.22085889570552153 1.51007462661924e-17 0.22085889570552153 1 
0.2239263803680982 1.531047885322285e-17 0.2239263803680982 1 
0.22699386503067487 1.5520211440253297e-17 0.22699386503067487 1 
0.2300613496932516 1.5729944027283748e-17 0.2300613496932516 1 
0.23312883435582826 1.59396766143142e-17 0.23312883435582826 1 
0.23619631901840496 1.614940920134465e-17 0.23619631901840496 1 
0.23926380368098166 1.63591417883751e-17 0.23926380368098166 1 
0.24233128834355833 1.6568874375405548e-17 0.24233128834355833 1 
0.24539877300613502 1.6778606962436002e-17 0.24539877300613502 1 
0.2484662576687117 1.698833954946645e-17 0.2484662576687117 1 
0.2515337423312884 1.7198072136496897e-17 0.2515337423312884 1 
0.25460122699386506 1.7407804723527348e-17 0.25460122699386506 1 
0.25766871165644173 1.7617537310557802e-17 0.2576687116564418 1 
0.2607361963190184 1.7827269897588247e-17 0.26073619631901845 1 
0.26380368098159507 1.8037002484618698e-17 0.2638036809815951 1 
0.26687116564417185 1.8246735071649148e-17 0.26687116564417185 1 
0.2699386503067485 1.84564676586796e-17 0.2699386503067485 1 
0.2730061349693252 1.866620024571005e-17 0.2730061349693252 1 
0.27607361963190186 1.8875932832740498e-17 0.2760736196319019 1 
0.2791411042944785 1.908566541977095e-17 0.2791411042944786 1 
0.2822085889570552 1.92953980068014e-17 0.28220858895705525 1 
0.285276073619632 1.950513059383185e-17 0.285276073619632 1 
0.28834355828220865 1.97148631808623e-17 0.28834355828220865 1 
0.2914110429447853 1.992459576789275e-17 0.2914110429447853 1 
0.29447852760736204 2.0134328354923202e-17 0.29447852760736204 1 
0.2975460122699387 2.034406094195365e-17 0.2975460122699387 1 
0.3006134969325154 2.0553793528984098e-17 0.3006134969325154 1 
0.30368098159509205 2.0763526116014552e-17 0.3036809815950921 1 
0.3067484662576687 2.0973258703045e-17 0.3067484662576688 1 
0.30981595092024544 2.118299129007545e-17 0.3098159509202455 1 
0.31288343558282217 2.13927238771059e-17 0.31288343558282217 1 
0.3159509202453988 2.1602456464136346e-17 0.31595092024539884 1 
0.3190184049079755 2.1812189051166796e-17 0.3190184049079755 1 
0.3220858895705521 2.2021921638197244e-17 0.3220858895705522 1 
0.3251533742331289 2.22316542252277e-17 0.32515337423312896 1 
0.3282208588957055 2.2441386812258146e-17 0.32822085889570557 1 
0.33128834355828224 2.26511193992886e-17 0.3312883435582823 1 
0.33435582822085896 2.2860851986319047e-17 0.33435582822085896 1 
0.33742331288343563 2.30705845733495e-17 0.3374233128834357 1 
0.3404907975460123 2.328031716037995e-17 0.3404907975460123 1 
0.34355828220858897 2.3490049747410397e-17 0.343558282208589 1 
0.3466257668711657 2.369978233444085e-17 0.34662576687116575 1 
0.3496932515337423 2.3909514921471295e-17 0.34969325153374237 1 
0.3527607361963191 2.4119247508501752e-17 0.35276073619631915 1 
0.3558282208588957 2.43289800955322e-17 0.35582822085889576 1 
0.35889570552147243 2.4538712682562648e-17 0.3588957055214725 1 
0.36196319018404916 2.47484452695931e-17 0.36196319018404916 1 
0.3650306748466258 2.495817785662355e-17 0.3650306748466259 1 
0.3680981595092025 2.5167910443653997e-17 0.3680981595092025 1 
0.37116564417177916 2.537764303068445e-17 0.3711656441717792 1 
0.3742331288343559 2.55873756177149e-17 0.37423312883435594 1 
0.3773006134969325 2.5797108204745346e-17 0.37730061349693256 1 
0.3803680981595093 2.60068407917758e-17 0.38036809815950934 1 
0.38343558282208595 2.6216573378806248e-17 0.38343558282208595 1 
0.3865030674846626 2.64263059658367e-17 0.3865030674846627 1 
0.38957055214723935 2.663603855286715e-17 0.3895705521472394 1 
0.392638036809816 2.68457711398976e-17 0.39263803680981607 1 
0.3957055214723927 2.7055503726928048e-17 0.39570552147239274 1 
0.39877300613496935 2.72652363139585e-17 0.3987730061349694 1 
0.4018404907975461 2.747496890098895e-17 0.40184049079754613 1 
0.4049079754601227 2.7684701488019397e-17 0.40490797546012275 1 
0.4079754601226995 2.789443407504985e-17 0.4079754601226995 1 
0.4110429447852762 2.8104166662080296e-17 0.4110429447852762 1 
0.41411042944785287 2.831389924911075e-17 0.41411042944785287 1 
0.41717791411042954 2.85236318361412e-17 0.41717791411042954 1 
0.4202453987730062 2.873336442317165e-17 0.4202453987730062 1 
0.42331288343558293 2.89430970102021e-17 0.42331288343558293 1 
0.42638036809815955 2.915282959723255e-17 0.42638036809815955 1 
0.4294478527607363 2.9362562184263e-17 0.4294478527607363 1 
0.432515337423313 2.957229477129345e-17 0.43251533742331294 1 
0.43558282208588966 2.9782027358323896e-17 0.43558282208588966 1 
0.4386503067484664 2.999175994535435e-17 0.4386503067484664 1 
0.44171779141104306 3.02014925323848e-17 0.44171779141104306 1 
0.44478527607361973 3.041122511941524e-17 0.44478527607361973 1 
0.4478527607361964 3.06209577064457e-17 0.4478527607361964 1 
0.4509202453987731 3.0830690293476144e-17 0.4509202453987731 1 
0.45398773006134974 3.1040422880506595e-17 0.45398773006134974 1 
0.4570552147239265 3.125015546753705e-17 0.4570552147239265 1 
0.4601226993865032 3.1459888054567496e-17 0.4601226993865032 1 
0.46319018404907986 3.166962064159795e-17 0.46319018404907986 1 
0.4662576687116565 3.18793532286284e-17 0.4662576687116565 1 
0.4693251533742333 3.208908581565885e-17 0.46932515337423325 1 
0.4723926380368099 3.22988184026893e-17 0.4723926380368099 1 
0.47546012269938664 3.250855098971975e-17 0.4754601226993866 1 
0.4785276073619633 3.27182835767502e-17 0.4785276073619633 1 
0.48159509202454 3.2928016163780646e-17 0.48159509202454 1 
0.48466257668711665 3.3137748750811096e-17 0.48466257668711665 1 
0.4877300613496934 3.334748133784155e-17 0.4877300613496934 1 
0.49079754601227005 3.3557213924872004e-17 0.49079754601227005 1 
0.4938650306748467 3.376694651190245e-17 0.4938650306748467 1 
0.4969325153374234 3.39766790989329e-17 0.4969325153374234 1 
0.5000000000000001 3.418641168596335e-17 0.5000000000000001 1 X
0.5000000000000001 3.418641168596335e-17 0.5000000000000001 1 X
0.5000000000000001 0.0030487804878049124 0.503048780487805 1 
0.5000000000000001 0.00609756097560979 0.5060975609756099 1 
0.5000000000000001 0.009146341463414667 0.5091463414634148 1 
0.5000000000000001 0.012195121951219547 0.5121951219512196 1 
0.5000000000000001 0.015243902439024423 0.5152439024390245 1 
0.5000000000000001 0.0182926829268293 0.5182926829268294 1 
0.5000000000000001 0.02134146341463418 0.5213414634146343 1 
0.5000000000000001 0.02439024390243906 0.5243902439024392 1 
0.5000000000000001 0.027439024390243934 0.527439024390244 1 
0.5000000000000001 0.03048780487804881 0.5304878048780489 1 
0.5000000000000001 0.03353658536585369 0.5335365853658538 1 
0.5000000000000001 0.03658536585365856 0.5365853658536587 1 
0.5000000000000001 0.03963414634146344 0.5396341463414636 1 
0.5000000000000001 0.042682926829268324 0.5426829268292684 1 
0.5000000000000001 0.0457317073170732 0.5457317073170733 1 
0.5000000000000001 0.048780487804878085 0.5487804878048782 1 
0.5000000000000001 0.05182926829268295 0.5518292682926831 1 
0.5000000000000001 0.05487804878048783 0.554878048780488 1 
0.5000000000000001 0.057926829268292714 0.5579268292682928 1 
0.5000000000000001 0.060975609756097594 0.5609756097560977 1 
0.5000000000000001 0.06402439024390247 0.5640243902439025 1 
0.5000000000000001 0.06707317073170735 0.5670731707317075 1 
0.5000000000000001 0.07012195121951223 0.5701219512195124 1 
0.5000000000000001 0.0731707317073171 0.5731707317073171 1 
0.5000000000000001 0.07621951219512196 0.576219512195122 1 
0.5000000000000001 0.07926829268292686 0.5792682926829269 1 
0.5000000000000001 0.08231707317073172 0.5823170731707318 1 
0.5000000000000001 0.0853658536585366 0.5853658536585367 1 
0.5000000000000001 0.08841463414634149 0.5884146341463415 1 
0.5000000000000001 0.09146341463414635 0.5914634146341464 1 
0.5000000000000001 0.09451219512195123 0.5945121951219513 1 
0.5000000000000001 0.09756097560975613 0.5975609756097562 1 
0.5000000000000001 0.10060975609756101 0.6006097560975611 1 
0.5000000000000001 0.10365853658536586 0.603658536585366 1 
0.5000000000000001 0.10670731707317074 0.6067073170731708 1 
0.5000000000000001 0.10975609756097564 0.6097560975609757 1 
0.5000000000000001 0.1128048780487805 0.6128048780487806 1 
0.5000000000000001 0.11585365853658539 0.6158536585365855 1 
0.5000000000000001 0.11890243902439027 0.6189024390243903 1 
0.5000000000000001 0.12195121951219513 0.6219512195121952 1 
0.5000000000000001 0.12500000000000003 0.6250000000000001 1 
0.5000000000000001 0.1280487804878049 0.628048780487805 1 
0.5000000000000001 0.1310975609756098 0.6310975609756099 1 
0.5000000000000001 0.13414634146341467 0.6341463414634148 1 
0.5000000000000001 0.13719512195121955 0.6371951219512196 1 
0.5000000000000001 0.14024390243902443 0.6402439024390245 1 
0.5000000000000001 0.14329268292682928 0.6432926829268294 1 
0.5000000000000001 0.14634146341463417 0.6463414634146343 1 
0.5000000000000001 0.14939024390243905 0.6493902439024392 1 
0.5000000000000001 0.15243902439024393 0.652439024390244 1 
0.5000000000000001 0.15548780487804878 0.6554878048780489 1 
0.5000000000000001 0.1585365853658537 0.6585365853658538 1 
0.5000000000000001 0.16158536585365857 0.6615853658536587 1 
0.5000000000000001 0.16463414634146345 0.6646341463414636 1 
0.5000000000000001 0.16768292682926833 0.6676829268292684 1 
0.5000000000000001 0.17073170731707318 0.6707317073170733 1 
0.5000000000000001 0.17378048780487804 0.6737804878048782 1 
0.5000000000000001 0.17682926829268295 0.6768292682926831 1 
0.5000000000000001 0.1798780487804878 0.6798780487804879 1 
0.5000000000000001 0.1829268292682927 0.6829268292682928 1 
0.5000000000000001 0.1859756097560976 0.6859756097560977 1 
0.5000000000000001 0.18902439024390244 0.6890243902439026 1 
0.5000000000000001 0.19207317073170735 0.6920731707317075 1 
0.5000000000000001 0.19512195121951223 0.6951219512195124 1 
0.5000000000000001 0.19817073170731708 0.6981707317073172 1 
0.5000000000000001 0.201219512195122 0.7012195121951221 1 
0.5000000000000001 0.20426829268292684 0.7042682926829269 1 
0.5000000000000001 0.2073170731707317 0.7073170731707318 1 
0.5000000000000001 0.2103658536585366 0.7103658536585367 1 
0.5000000000000001 0.21341463414634146 0.7134146341463415 1 
0.5000000000000001 0.21646341463414634 0.7164634146341464 1 
0.5000000000000001 0.21951219512195125 0.7195121951219513 1 
0.5000000000000001 0.2225609756097561 0.7225609756097562 1 
0.5000000000000001 0.225609756097561 0.7256097560975611 1 
0.5000000000000001 0.2286585365853659 0.7286585365853661 1 
0.5000000000000001 0.23170731707317074 0.7317073170731708 1 
0.5000000000000001 0.23475609756097562 0.7347560975609757 1 
0.5000000000000001 0.2378048780487805 0.7378048780487806 1 
0.5000000000000001 0.24085365853658536 0.7408536585365855 1 
0.5000000000000001 0.24390243902439027 0.7439024390243903 1 
0.5000000000000001 0.24695121951219512 0.7469512195121952 1 
0.5000000000000001 0.25 0.7500000000000001 1 W
0.5000000000000001 0.25 0.7500000000000001 1 W
0.497844827586207 0.25215517241379315 0.7500000000000001 1 
0.495689655172414 0.25431034482758624 0.7500000000000001 1 
0.49353448275862083 0.25646551724137934 0.7500000000000001 1 
0.49137931034482774 0.25862068965517243 0.7500000000000001 1 
0.48922413793103464 0.2607758620689656 0.7500000000000001 1 
0.48706896551724155 0.2629310344827587 0.7500000000000001 1 
0.4849137931034484 0.26508620689655177 0.7500000000000001 1 
0.4827586206896553 0.26724137931034486 0.7500000000000001 1 
0.4806034482758622 0.26939655172413796 0.7500000000000001 1 
0.4784482758620691 0.2715517241379311 0.7500000000000001 1 
0.47629310344827597 0.2737068965517242 0.7500000000000001 1 
0.47413793103448293 0.27586206896551724 0.7500000000000001 1 
0.4719827586206898 0.2780172413793104 0.7500000000000001 1 
0.4698275862068967 0.2801724137931035 0.7500000000000001 1 
0.4676724137931036 0.28232758620689663 0.7500000000000001 1 
0.4655172413793105 0.28448275862068967 0.7500000000000001 1 
0.46336206896551735 0.28663793103448276 0.7500000000000001 1 
0.4612068965517243 0.2887931034482759 0.7500000000000001 1 
0.45905172413793116 0.290948275862069 0.7500000000000001 1 
0.45689655172413807 0.2931034482758621 0.7500000000000001 1 
0.45474137931034503 0.2952586206896552 0.7500000000000001 1 
0.4525862068965519 0.2974137931034483 0.7500000000000001 1 
0.45043103448275873 0.2995689655172414 0.7500000000000001 1 
0.4482758620689657 0.30172413793103453 0.7500000000000001 1 
0.4461206896551726 0.3038793103448276 0.7500000000000001 1 
0.44396551724137945 0.3060344827586207 0.7500000000000001 1 
0.4418103448275863 0.3081896551724138 0.7500000000000001 1 
0.43965517241379326 0.31034482758620696 0.7500000000000001 1 
0.43750000000000017 0.3125 0.7500000000000001 1 
0.435344827586207 0.31465517241379315 0.7500000000000001 1 
0.433189655172414 0.31681034482758624 0.7500000000000001 1 
0.43103448275862083 0.31896551724137934 0.7500000000000001 1 
0.42887931034482774 0.32112068965517243 0.7500000000000001 1 
0.42672413793103464 0.3232758620689656 0.7500000000000001 1 
0.42456896551724155 0.3254310344827586 0.7500000000000001 1 
0.4224137931034484 0.32758620689655177 0.7500000000000001 1 
0.4202586206896553 0.32974137931034486 0.7500000000000001 1 
0.4181034482758622 0.33189655172413796 0.7500000000000001 1 
0.4159482758620691 0.33405172413793105 0.7500000000000001 1 
0.41379310344827597 0.3362068965517242 0.7500000000000001 1 
0.41163793103448293 0.33836206896551724 0.7500000000000001 1 
0.4094827586206898 0.3405172413793104 0.7500000000000001 1 
0.4073275862068967 0.3426724137931035 0.7500000000000001 1 
0.4051724137931036 0.34482758620689646 0.7500000000000001 1 
0.4030172413793105 0.3469827586206896 0.7500000000000001 1 
0.40086206896551735 0.34913793103448276 0.7500000000000001 1 
0.3987068965517243 0.3512931034482758 0.7500000000000001 1 
0.39655172413793116 0.3534482758620689 0.7500000000000001 1 
0.39439655172413807 0.35560344827586204 0.7500000000000001 1 
0.39224137931034503 0.3577586206896551 0.7500000000000001 1 
0.3900862068965519 0.35991379310344823 0.7500000000000001 1 
0.38793103448275873 0.3620689655172413 0.7500000000000001 1 
0.38577586206896564 0.3642241379310345 0.7500000000000001 1 
0.3836206896551726 0.3663793103448275 0.7500000000000001 1 
0.38146551724137945 0.36853448275862066 0.7500000000000001 1 
0.3793103448275863 0.37068965517241376 0.7500000000000001 1 
0.37715517241379326 0.37284482758620685 0.7500000000000001 1 
0.37500000000000017 0.37499999999999994 0.7500000000000001 1 K
0.37500000000000017 0.37499999999999994 0.7500000000000001 1 K
0.37283236994219665 0.3728323699421965 0.7456647398843931 1 
0.3706647398843932 0.370664739884393 0.7413294797687862 1 
0.36849710982658973 0.36849710982658956 0.7369942196531792 1 
0.36632947976878627 0.36632947976878605 0.7326589595375723 1 
0.36416184971098275 0.3641618497109826 0.7283236994219653 1 
0.3619942196531793 0.3619942196531792 0.7239884393063585 1 
0.3598265895953759 0.3598265895953757 0.7196531791907516 1 
0.35765895953757243 0.35765895953757226 0.7153179190751446 1 
0.35549132947976897 0.35549132947976875 0.7109826589595376 1 
0.35332369942196545 0.3533236994219653 0.7066473988439307 1 
0.351156069364162 0.3511560693641618 0.7023121387283238 1 
0.34898843930635853 0.34898843930635837 0.6979768786127168 1 
0.346820809248555 0.34682080924855485 0.6936416184971098 1 
0.34465317919075156 0.3446531791907514 0.6893063583815029 1 
0.3424855491329481 0.34248554913294793 0.684971098265896 1 
0.34031791907514464 0.3403179190751445 0.6806358381502892 1 
0.3381502890173411 0.33815028901734107 0.6763005780346821 1 
0.33598265895953766 0.33598265895953755 0.6719653179190752 1 
0.33381502890173426 0.3338150289017341 0.6676300578034683 1 
0.3316473988439308 0.33164739884393063 0.6632947976878614 1 
0.32947976878612734 0.32947976878612717 0.6589595375722545 1 
0.3273121387283238 0.32731213872832365 0.6546242774566474 1 
0.32514450867052036 0.3251445086705202 0.6502890173410405 1 
0.3229768786127169 0.32297687861271673 0.6459537572254336 1 
0.32080924855491344 0.3208092485549133 0.6416184971098267 1 
0.3186416184971099 0.31864161849710976 0.6372832369942196 1 
0.31647398843930646 0.3164739884393063 0.6329479768786127 1 
0.314306358381503 0.3143063583815029 0.6286127167630059 1 
0.31213872832369954 0.31213872832369943 0.624277456647399 1 
0.30997109826589603 0.309971098265896 0.619942196531792 1 
0.3078034682080926 0.30780346820809246 0.615606936416185 1 
0.30563583815028916 0.305635838150289 0.6112716763005781 1 
0.3034682080924857 0.30346820809248554 0.6069364161849712 1 
0.3013005780346822 0.3013005780346821 0.6026011560693643 1 
0.2991329479768787 0.29913294797687856 0.5982658959537572 1 
0.29696531791907527 0.2969653179190751 0.5939306358381503 1 
0.2947976878612718 0.29479768786127164 0.5895953757225434 1 
0.29263005780346835 0.2926300578034682 0.5852601156069365 1 
0.29046242774566483 0.2904624277456647 0.5809248554913296 1 
0.28829479768786137 0.28829479768786126 0.5765895953757226 1 
0.2861271676300579 0.2861271676300578 0.5722543352601157 1 
0.28395953757225445 0.28395953757225434 0.5679190751445088 1 
0.281791907514451 0.2817919075144509 0.5635838150289018 1 
0.27962427745664753 0.27962427745664736 0.5592485549132948 1 
0.27745664739884407 0.2774566473988439 0.5549132947976879 1 
0.2752890173410406 0.27528901734104044 0.550578034682081 1 
0.27312138728323715 0.273121387283237 0.5462427745664741 1 
0.27095375722543363 0.2709537572254335 0.5419075144508672 1 
0.2687861271676302 0.26878612716763006 0.5375722543352602 1 
0.2666184971098267 0.26661849710982655 0.5332369942196532 1 
0.26445086705202325 0.2644508670520231 0.5289017341040463 1 
0.26228323699421974 0.2622832369942197 0.5245664739884394 1 
0.2601156069364163 0.26011560693641617 0.5202312138728324 1 
0.2579479768786128 0.2579479768786127 0.5158959537572255 1 
0.25578034682080936 0.25578034682080925 0.5115606936416186 1 
0.2536127167630059 0.2536127167630058 0.5072254335260116 1 
0.25144508670520244 0.25144508670520227 0.5028901734104047 1 
0.24927745664739895 0.2492774566473988 0.49855491329479773 1 
0.2471098265895955 0.24710982658959538 0.4942196531791908 1 
0.244942196531792 0.2449421965317919 0.4898843930635839 1 
0.24277456647398854 0.24277456647398846 0.48554913294797697 1 
0.24060693641618505 0.240606936416185 0.48121387283237 1 
0.2384393063583816 0.2384393063583815 0.4768786127167631 1 
0.2362716763005781 0.23627167630057805 0.4725433526011561 1 
0.23410404624277467 0.23410404624277456 0.46820809248554923 1 
0.23193641618497118 0.2319364161849711 0.46387283236994226 1 
0.22976878612716772 0.2297687861271676 0.45953757225433534 1 
0.2276011560693642 0.22760115606936415 0.4552023121387283 1 
0.22543352601156078 0.22543352601156066 0.45086705202312144 1 
0.2232658959537573 0.2232658959537572 0.44653179190751446 1 
0.22109826589595385 0.22109826589595374 0.4421965317919076 1 
0.21893063583815034 0.21893063583815028 0.43786127167630057 1 
0.2167630057803469 0.2167630057803468 0.4335260115606937 1 
0.21459537572254342 0.21459537572254336 0.4291907514450867 1 
0.21242774566473996 0.2124277456647399 0.4248554913294798 1 
0.21026011560693647 0.21026011560693642 0.42052023121387283 1 
0.208092485549133 0.20809248554913296 0.4161849710982659 1 
0.20592485549132958 0.20592485549132947 0.411849710982659 1 
0.2037572254335261 0.20375722543352603 0.40751445086705207 1 
0.20158959537572263 0.20158959537572252 0.40317919075144515 1 
0.19942196531791914 0.19942196531791906 0.3988439306358382 1 
0.19725433526011568 0.19725433526011557 0.39450867052023125 1 
0.19508670520231222 0.19508670520231214 0.39017341040462433 1 
0.19291907514450876 0.19291907514450868 0.3858381502890174 1 
0.19075144508670527 0.1907514450867052 0.38150289017341044 1 
0.1885838150289018 0.18858381502890173 0.3771676300578035 1 
0.18641618497109833 0.18641618497109824 0.37283236994219654 1 
0.1842485549132949 0.1842485549132948 0.3684971098265897 1 
0.18208092485549138 0.1820809248554913 0.36416184971098264 1 
0.17991329479768794 0.17991329479768786 0.3598265895953758 1 
0.17774566473988448 0.17774566473988437 0.3554913294797688 1 
0.175578034682081 0.1755780346820809 0.3511560693641619 1 
0.1734104046242775 0.17341040462427743 0.3468208092485549 1 
0.17124277456647408 0.171242774566474 0.34248554913294804 1 
0.16907514450867056 0.16907514450867053 0.33815028901734107 1 
0.16690751445086713 0.16690751445086704 0.33381502890173415 1 
0.16473988439306367 0.16473988439306358 0.3294797687861272 1 
0.16257225433526015 0.1625722543352601 0.32514450867052025 1 
0.16040462427745672 0.16040462427745664 0.32080924855491333 1 
0.15823699421965323 0.15823699421965315 0.31647398843930635 1 
0.1560693641618498 0.15606936416184972 0.3121387283236995 1 
0.15390173410404628 0.1539017341040462 0.30780346820809246 1 
0.15173410404624285 0.15173410404624277 0.3034682080924856 1 
0.14956647398843934 0.14956647398843928 0.2991329479768786 1 
0.1473988439306359 0.14739884393063585 0.29479768786127175 1 
0.14523121387283242 0.14523121387283233 0.2904624277456647 1 
0.14306358381502898 0.1430635838150289 0.28612716763005785 1 
0.14089595375722547 0.14089595375722544 0.2817919075144509 1 
0.13872832369942203 0.13872832369942198 0.277456647398844 1 
0.13656069364161857 0.1365606936416185 0.273121387283237 1 
0.1343930635838151 0.13439306358381503 0.2687861271676301 1 
0.13222543352601163 0.13222543352601157 0.26445086705202314 1 
0.13005780346820817 0.13005780346820808 0.2601156069364162 1 
0.12789017341040468 0.12789017341040462 0.25578034682080925 1 
0.12572254335260122 0.1257225433526012 0.2514450867052024 1 
0.12355491329479774 0.12355491329479767 0.2471098265895954 1 
0.12138728323699423 0.1213872832369942 0.2427745664739884 1 
0.1192196531791908 0.11921965317919075 0.23843930635838154 1 
0.11705202312138732 0.11705202312138728 0.2341040462427746 1 
0.11488439306358388 0.1148843930635838 0.22976878612716767 1 
0.11271676300578036 0.11271676300578033 0.2254335260115607 1 
0.11054913294797693 0.1105491329479769 0.2210982658959538 1 
0.10838150289017345 0.10838150289017338 0.21676300578034682 1 
0.10621387283236998 0.10621387283236995 0.2124277456647399 1 
0.1040462427745665 0.10404624277456648 0.20809248554913296 1 
0.10187861271676306 0.10187861271676303 0.20375722543352606 1 
0.09971098265895956 0.09971098265895952 0.19942196531791906 1 
0.09754335260115611 0.09754335260115607 0.19508670520231217 1 
0.09537572254335264 0.0953757225433526 0.19075144508670522 1 
0.0932080924855492 0.09320809248554916 0.18641618497109835 1 
0.09104046242774569 0.09104046242774565 0.18208092485549132 1 
0.08887283236994226 0.08887283236994221 0.17774566473988446 1 
0.08670520231213874 0.08670520231213874 0.17341040462427748 1 
0.08453757225433531 0.08453757225433527 0.16907514450867056 1 
0.08236994219653183 0.08236994219653179 0.1647398843930636 1 
0.08020231213872832 0.08020231213872832 0.16040462427745664 1 
0.07803468208092489 0.07803468208092484 0.15606936416184972 1 
0.07586705202312141 0.07586705202312137 0.15173410404624277 1 
0.07369942196531797 0.07369942196531792 0.14739884393063588 1 
0.07153179190751446 0.07153179190751442 0.14306358381502887 1 
0.06936416184971102 0.06936416184971098 0.13872832369942198 1 
0.06719653179190754 0.0671965317919075 0.13439306358381503 1 
0.06502890173410411 0.06502890173410403 0.1300578034682081 1 
0.06286127167630057 0.06286127167630055 0.1257225433526011 1 
0.06069364161849715 0.06069364161849715 0.1213872832369943 1 
0.058526011560693675 0.058526011560693605 0.11705202312138728 1 
0.0563583815028902 0.0563583815028902 0.11271676300578039 1 
0.05419075144508673 0.05419075144508673 0.10838150289017344 1 
0.05202312138728325 0.05202312138728325 0.10404624277456649 1 
0.04985549132947978 0.04985549132947977 0.09971098265895954 1 
0.047687861271676305 0.0476878612716763 0.0953757225433526 1 
0.04552023121387283 0.045520231213872824 0.09104046242774565 1 
0.043352601156069426 0.04335260115606935 0.08670520231213877 1 
0.04118497109826588 0.041184971098265875 0.08236994219653175 1 
0.03901734104046241 0.0390173410404624 0.0780346820809248 1 
0.036849710982659004 0.03684971098265893 0.07369942196531792 1 
0.03468208092485546 0.03468208092485545 0.0693641618497109 1 
0.032514450867052055 0.03251445086705205 0.0650289017341041 1 
0.030346820809248574 0.030346820809248505 0.06069364161849708 1 
0.0281791907514451 0.0281791907514451 0.056358381502890194 1 
0.026011560693641626 0.026011560693641626 0.052023121387283246 1 
0.023843930635838152 0.02384393063583815 0.0476878612716763 1 
0.021676300578034678 0.021676300578034675 0.04335260115606935 1 
0.019508670520231204 0.0195086705202312 0.0390173410404624 1 
0.01734104046242773 0.017341040462427727 0.03468208092485545 1 
0.015173410404624322 0.015173410404624322 0.03034682080924864 1 
0.013005780346820778 0.013005780346820778 0.026011560693641557 1 
0.010838150289017374 0.010838150289017372 0.021676300578034744 1 
0.008670520231213898 0.008670520231213898 0.017341040462427796 1 
0.006502890173410424 0.006502890173410424 0.013005780346820846 1 
0.004335260115606949 0.004335260115606949 0.008670520231213898 1 
0.0021676300578034745 0.0021676300578034745 0.004335260115606949 1 
0.0 0.0 0.0 1 \Gamma
0.0 0.0 0.0 1 \Gamma
0.0035460992907801426 0.003546099290780142 0.003546099290780142 1 