ALGO = Fast
EDIFF = 5e-05
ENCUT = 520.0
IBRION = -1
ICHARG = 11
ISIF = 3
ISMEAR = -5
ISPIN = 1
ISYM = 2
KPOINT_BSE = -1 0 0 0
LASPH = True
LCHARG = False
LORBIT = 11
LREAL = Auto
LWAVE = False
NBANDS = 8
NEDOS = 2001
NELM = 100
NSW = 0
PREC = accurate
SIGMA = 0.05
