Al3 Cr1
1.0
-1.890856 1.890856 4.045767
1.890856 -1.890856 4.045767
1.890856 1.890856 -4.045767
Al Cr
3 1
direct
0.750001 0.249999 0.500002 Al
0.249999 0.750001 0.500002 Al
0.500000 0.500000 0.000000 Al
0.000000 0.000000 0.000000 Cr
