Al4
1.0
2.857147 -0.000000 -0.000000
-1.428573 2.474362 0.000000
0.000000 0.000000 9.296985
Al
4
direct
0.000000 0.000000 0.000000 Al
0.333333 0.666667 0.250000 Al
0.000000 0.000000 0.500000 Al
0.666668 0.333333 0.750000 Al
