pymatgen 4.7.6+ generated KPOINTS with grid density = 1096 / atom
0
Gamma
10 10 10
