pymatgen v1.1 with grid density = 660 / atom
0
Gamma
6 6 3
