Cr2
1.0
2.490636 0.000000 0.000000
-1.245318 2.156954 0.000000
0.000000 0.000000 4.449632
Cr
2
direct
0.333333 0.666667 0.250000 Cr
0.666667 0.333333 0.750000 Cr
