ALGO = Normal
EDIFF = 0.0004
ENCUT = 520
IBRION = 2
ICHARG = 0
ISIF = 2
ISMEAR = -5
ISPIN = 2
ISTART = 1
LAECHG = True
LCHARG = True
LORBIT = 11
LREAL = Auto
LVHAR = True
LWAVE = False
MAGMOM = 8*0.6
NELM = 100
NSW = 99
PREC = High
SIGMA = 0.05
