pymatgen with grid density = 769 / number of atoms
0
Monkhorst
4 4 4
