ALGO = Fast
EDIFF = 0.0002
ENCUT = 520
IBRION = 2
ICHARG = 1
ISIF = 3
ISMEAR = -5
ISPIN = 2
LORBIT = 11
LREAL = Auto
LWAVE = False
MAGMOM = 2*-0.029 1*-0.025 1*1.355
NELM = 100
NSW = 99
PREC = Accurate
SIGMA = 0.05
