ALGO = Fast
EDIFF = 0.0013000000000000002
ENCUT = 520
IBRION = 2
ICHARG = 1
ISIF = 3
ISMEAR = -5
ISPIN = 2
LORBIT = 11
LREAL = Auto
LWAVE = False
MAGMOM = 4*-0.001 12*0.0 1*-0.051 2*0.07 1*0.067 1*-0.032 1*-0.034 1*-0.038 1*0.019 1*0.017 1*0.015
NELM = 100
NSW = 99
PREC = Accurate
SIGMA = 0.05
