pymatgen v1.1 with grid density = 1106 / atom
0
Gamma
3 3 3
