pymatgen v1.1 with grid density = 1334 / atom
0
Gamma
11 11 11
